p cnf 14 20
-14 13 -1 0
14 11 -10 0
-14 8 -2 0
14 5 -3 0
-13 11 8 0
13 -10 -5 0
-13 -9 -4 0
13 -6 3 0
-12 7 2 0
-12 4 1 0
-11 8 -1 0
11 7 -2 0
11 -5 -3 0
-10 -5 3 0
-9 8 2 0
8 -6 4 0
-8 -6 1 0
-7 -6 1 0
-6 -4 1 0
-5 4 3 0
